solution status: optimal solution found
objective value:                     178797.851938785
d11(0,0)                                            1 	(obj:0)
d11(1,1)                                            1 	(obj:0)
d11(1,2)                                            1 	(obj:0)
d11(2,4)                                            1 	(obj:0)
d11(2,5)                                            1 	(obj:0)
d11(2,6)                                            1 	(obj:0)
d11(2,7)                                            1 	(obj:0)
d11(2,8)                                            1 	(obj:0)
d11(2,9)                                            1 	(obj:0)
d11(2,10)                                           1 	(obj:0)
d11(2,11)                                           1 	(obj:0)
d11(2,12)                                           1 	(obj:0)
d11(3,13)                                           1 	(obj:0)
d11(3,14)                                           1 	(obj:0)
d11(3,15)                                           1 	(obj:0)
d11(3,16)                                           1 	(obj:0)
d11(3,17)                                           1 	(obj:0)
d11(3,18)                                           1 	(obj:0)
d11(3,19)                                           1 	(obj:0)
d11(3,20)                                           1 	(obj:0)
d11(3,21)                                           1 	(obj:0)
d11(3,22)                                           1 	(obj:0)
d11(3,23)                                           1 	(obj:0)
d11(3,24)                                           1 	(obj:0)
d11(3,25)                                           1 	(obj:0)
d11(3,26)                                           1 	(obj:0)
d11(3,27)                                           1 	(obj:0)
d11(3,28)                                           1 	(obj:0)
d11(3,29)                                           1 	(obj:0)
d11(3,31)                                           1 	(obj:0)
d11(3,32)                                           1 	(obj:0)
d11(3,33)                                           1 	(obj:0)
d11(3,34)                                           1 	(obj:0)
d11(3,35)                                           1 	(obj:0)
d11(3,36)                                           1 	(obj:0)
d11(3,37)                                           1 	(obj:0)
d11(3,38)                                           1 	(obj:0)
d11(3,39)                                           1 	(obj:0)
d11(4,40)                                           1 	(obj:0)
d11(4,41)                                           1 	(obj:0)
d11(4,42)                                           1 	(obj:0)
d11(4,43)                                           1 	(obj:0)
d11(4,44)                                           1 	(obj:0)
d11(4,45)                                           1 	(obj:0)
d11(4,46)                                           1 	(obj:0)
d11(4,47)                                           1 	(obj:0)
d11(4,48)                                           1 	(obj:0)
d11(4,49)                                           1 	(obj:0)
d11(4,50)                                           1 	(obj:0)
d11(4,51)                                           1 	(obj:0)
d11(4,52)                                           1 	(obj:0)
d11(4,53)                                           1 	(obj:0)
d11(4,54)                                           1 	(obj:0)
d11(4,55)                                           1 	(obj:0)
d11(4,56)                                           1 	(obj:0)
d11(4,57)                                           1 	(obj:0)
d11(4,58)                                           1 	(obj:0)
d11(4,59)                                           1 	(obj:0)
d11(4,60)                                           1 	(obj:0)
d11(4,61)                                           1 	(obj:0)
d11(4,62)                                           1 	(obj:0)
d11(4,63)                                           1 	(obj:0)
d11(4,64)                                           1 	(obj:0)
d11(4,65)                                           1 	(obj:0)
d11(4,66)                                           1 	(obj:0)
d11(4,67)                                           1 	(obj:0)
d11(4,68)                                           1 	(obj:0)
d11(4,69)                                           1 	(obj:0)
d11(4,70)                                           1 	(obj:0)
d11(4,71)                                           1 	(obj:0)
d11(4,72)                                           1 	(obj:0)
d11(4,73)                                           1 	(obj:0)
d11(4,74)                                           1 	(obj:0)
d11(4,75)                                           1 	(obj:0)
d11(4,76)                                           1 	(obj:0)
d11(4,77)                                           1 	(obj:0)
d11(4,78)                                           1 	(obj:0)
d11(4,79)                                           1 	(obj:0)
d11(4,80)                                           1 	(obj:0)
d11(4,81)                                           1 	(obj:0)
d11(4,82)                                           1 	(obj:0)
d11(4,83)                                           1 	(obj:0)
d11(4,84)                                           1 	(obj:0)
d11(4,85)                                           1 	(obj:0)
d11(4,86)                                           1 	(obj:0)
d11(4,87)                                           1 	(obj:0)
d11(4,88)                                           1 	(obj:0)
d11(4,89)                                           1 	(obj:0)
d11(4,90)                                           1 	(obj:0)
d11(4,91)                                           1 	(obj:0)
d11(4,92)                                           1 	(obj:0)
d11(4,93)                                           1 	(obj:0)
d11(4,94)                                           1 	(obj:0)
d11(4,95)                                           1 	(obj:0)
d11(4,96)                                           1 	(obj:0)
d11(4,97)                                           1 	(obj:0)
d11(4,98)                                           1 	(obj:0)
d11(4,99)                                           1 	(obj:0)
d11(4,100)                                          1 	(obj:0)
d11(4,101)                                          1 	(obj:0)
d11(4,102)                                          1 	(obj:0)
d11(4,103)                                          1 	(obj:0)
d11(4,104)                                          1 	(obj:0)
d11(4,105)                                          1 	(obj:0)
d11(4,106)                                          1 	(obj:0)
d11(4,107)                                          1 	(obj:0)
d11(4,108)                                          1 	(obj:0)
d11(4,109)                                          1 	(obj:0)
d11(4,110)                                          1 	(obj:0)
d11(4,112)                                          1 	(obj:0)
d11(4,113)                                          1 	(obj:0)
d11(4,114)                                          1 	(obj:0)
d11(4,115)                                          1 	(obj:0)
d11(4,116)                                          1 	(obj:0)
d11(4,117)                                          1 	(obj:0)
d11(4,118)                                          1 	(obj:0)
d11(4,119)                                          1 	(obj:0)
d11(4,120)                                          1 	(obj:0)
d12(1,3)                                            1 	(obj:0)
d21(3,13)                                           1 	(obj:0)
d21(3,14)                                           1 	(obj:0)
d21(3,16)                                           1 	(obj:0)
d21(3,22)                                           1 	(obj:0)
d21(4,40)                                           1 	(obj:0)
d21(4,41)                                           1 	(obj:0)
d21(4,42)                                           1 	(obj:0)
d21(4,43)                                           1 	(obj:0)
d21(4,44)                                           1 	(obj:0)
d21(4,45)                                           1 	(obj:0)
d21(4,46)                                           1 	(obj:0)
d21(4,47)                                           1 	(obj:0)
d21(4,49)                                           1 	(obj:0)
d21(4,50)                                           1 	(obj:0)
d21(4,51)                                           1 	(obj:0)
d21(4,52)                                           1 	(obj:0)
d21(4,53)                                           1 	(obj:0)
d21(4,55)                                           1 	(obj:0)
d21(4,58)                                           1 	(obj:0)
d21(4,59)                                           1 	(obj:0)
d21(4,61)                                           1 	(obj:0)
d21(4,67)                                           1 	(obj:0)
d21(4,68)                                           1 	(obj:0)
d21(4,69)                                           1 	(obj:0)
d21(4,70)                                           1 	(obj:0)
d21(4,71)                                           1 	(obj:0)
d21(4,73)                                           1 	(obj:0)
d21(4,76)                                           1 	(obj:0)
d21(4,77)                                           1 	(obj:0)
d21(4,79)                                           1 	(obj:0)
d21(4,80)                                           1 	(obj:0)
d21(4,85)                                           1 	(obj:0)
d21(4,94)                                           1 	(obj:0)
d21(4,95)                                           1 	(obj:0)
d21(4,97)                                           1 	(obj:0)
d21(4,98)                                           1 	(obj:0)
d21(4,103)                                          1 	(obj:0)
d21(4,104)                                          1 	(obj:0)
d21(4,106)                                          1 	(obj:0)
STE(1,1)                             6671.76436339866 	(obj:0)
STE(0,0)                                         9450 	(obj:0)
STE(1,2)                             7668.53036673198 	(obj:0)
STE(1,3)                                         8694 	(obj:0)
STE(2,4)                             3622.68630000009 	(obj:0)
STE(2,5)                             4619.45230333338 	(obj:0)
STE(2,6)                             5836.90450666676 	(obj:0)
STE(2,7)                             4619.45230333341 	(obj:0)
STE(2,8)                              5616.2183066667 	(obj:0)
STE(2,9)                              6833.6705100001 	(obj:0)
STE(2,10)                            5644.92193660143 	(obj:0)
STE(2,11)                            6641.68793993472 	(obj:0)
STE(2,12)                             7859.1401432681 	(obj:0)
STE(3,13)                            652.468093333385 	(obj:0)
STE(3,14)                            1649.23409666668 	(obj:0)
STE(3,15)                            2866.68630000009 	(obj:0)
STE(3,16)                            1649.23409666668 	(obj:0)
STE(3,17)                            2646.00009999997 	(obj:0)
STE(3,18)                            3863.45230333339 	(obj:0)
STE(3,19)                            2866.68630000005 	(obj:0)
STE(3,20)                            3863.45230333335 	(obj:0)
STE(3,21)                            5080.90450666676 	(obj:0)
STE(3,22)                            1649.23409666671 	(obj:0)
STE(3,23)                                   2646.0001 	(obj:0)
STE(3,24)                            3863.45230333341 	(obj:0)
STE(3,25)                                   2646.0001 	(obj:0)
STE(3,26)                            3642.76610333329 	(obj:0)
STE(3,27)                             4860.2183066667 	(obj:0)
STE(3,28)                            3863.45230333339 	(obj:0)
STE(3,29)                            4860.21830666668 	(obj:0)
STE(3,30)                             6077.6705100001 	(obj:0)
STE(3,31)                            2674.70372993473 	(obj:0)
STE(3,32)                            3671.46973326802 	(obj:0)
STE(3,33)                            4888.92193660143 	(obj:0)
STE(3,34)                            3671.46973326802 	(obj:0)
STE(3,35)                            4668.23573660131 	(obj:0)
STE(3,36)                            5885.68793993472 	(obj:0)
STE(3,37)                             4888.9219366014 	(obj:0)
STE(3,38)                            5885.68793993469 	(obj:0)
STE(3,39)                             7103.1401432681 	(obj:0)
STE(4,40)                            -2317.7501133333 	(obj:0)
STE(4,41)                           -1320.98411000001 	(obj:0)
STE(4,42)                           -103.531906666615 	(obj:0)
STE(4,43)                           -1320.98411000001 	(obj:0)
STE(4,44)                           -324.218106666715 	(obj:0)
STE(4,45)                            893.234096666677 	(obj:0)
STE(4,46)                           -103.531906666595 	(obj:0)
STE(4,47)                            893.234096666696 	(obj:0)
STE(4,48)                            2110.68630000009 	(obj:0)
STE(4,49)                           -1320.98411000001 	(obj:0)
STE(4,50)                           -324.218106666715 	(obj:0)
STE(4,51)                            893.234096666677 	(obj:0)
STE(4,52)                           -324.218106666715 	(obj:0)
STE(4,53)                            672.547896666576 	(obj:0)
STE(4,54)                            1890.00009999997 	(obj:0)
STE(4,55)                            893.234096666709 	(obj:0)
STE(4,56)                                   1890.0001 	(obj:0)
STE(4,57)                            3107.45230333339 	(obj:0)
STE(4,58)                           -103.531906666629 	(obj:0)
STE(4,59)                            893.234096666662 	(obj:0)
STE(4,60)                            2110.68630000005 	(obj:0)
STE(4,61)                            893.234096666662 	(obj:0)
STE(4,62)                            1890.00009999995 	(obj:0)
STE(4,63)                            3107.45230333335 	(obj:0)
STE(4,64)                            2110.68630000007 	(obj:0)
STE(4,65)                            3107.45230333336 	(obj:0)
STE(4,66)                            4324.90450666676 	(obj:0)
STE(4,67)                           -1320.98410999997 	(obj:0)
STE(4,68)                           -324.218106666683 	(obj:0)
STE(4,69)                            893.234096666709 	(obj:0)
STE(4,70)                           -324.218106666683 	(obj:0)
STE(4,71)                            672.547896666608 	(obj:0)
STE(4,72)                                   1890.0001 	(obj:0)
STE(4,73)                            893.234096666729 	(obj:0)
STE(4,74)                            1890.00010000002 	(obj:0)
STE(4,75)                            3107.45230333341 	(obj:0)
STE(4,76)                           -324.218106666683 	(obj:0)
STE(4,77)                            672.547896666608 	(obj:0)
STE(4,78)                                   1890.0001 	(obj:0)
STE(4,79)                            672.547896666608 	(obj:0)
STE(4,80)                             1669.3138999999 	(obj:0)
STE(4,81)                            2886.76610333328 	(obj:0)
STE(4,82)                            1890.00010000002 	(obj:0)
STE(4,83)                            2886.76610333331 	(obj:0)
STE(4,84)                             4104.2183066667 	(obj:0)
STE(4,85)                             893.23409666671 	(obj:0)
STE(4,86)                                   1890.0001 	(obj:0)
STE(4,87)                            3107.45230333339 	(obj:0)
STE(4,88)                                   1890.0001 	(obj:0)
STE(4,89)                            2886.76610333329 	(obj:0)
STE(4,90)                            4104.21830666668 	(obj:0)
STE(4,91)                            3107.45230333341 	(obj:0)
STE(4,92)                             4104.2183066667 	(obj:0)
STE(4,93)                            5321.67051000008 	(obj:0)
STE(4,94)                           -295.514476731955 	(obj:0)
STE(4,95)                            701.251526601336 	(obj:0)
STE(4,96)                            1918.70372993473 	(obj:0)
STE(4,97)                            701.251526601336 	(obj:0)
STE(4,98)                            1698.01752993463 	(obj:0)
STE(4,99)                            2915.46973326802 	(obj:0)
STE(4,100)                           1918.70372993475 	(obj:0)
STE(4,101)                           2915.46973326804 	(obj:0)
STE(4,102)                           4132.92193660143 	(obj:0)
STE(4,103)                           701.251526601336 	(obj:0)
STE(4,104)                           1698.01752993463 	(obj:0)
STE(4,105)                           2915.46973326814 	(obj:0)
STE(4,106)                           1698.01752993463 	(obj:0)
STE(4,107)                           2694.78353326792 	(obj:0)
STE(4,108)                           3912.23573660131 	(obj:0)
STE(4,109)                           2915.46973326804 	(obj:0)
STE(4,110)                           3912.23573660133 	(obj:0)
STE(4,111)                           5129.68793993472 	(obj:0)
STE(4,112)                           1918.70372993471 	(obj:0)
STE(4,113)                             2915.469733268 	(obj:0)
STE(4,114)                            4132.9219366014 	(obj:0)
STE(4,115)                             2915.469733268 	(obj:0)
STE(4,116)                            3912.2357366013 	(obj:0)
STE(4,117)                           5129.68793993469 	(obj:0)
STE(4,118)                           4132.92193660142 	(obj:0)
STE(4,119)                           5129.68793993471 	(obj:0)
STE(4,120)                            6347.1401432681 	(obj:0)
y1(4,100)                            1992.79638600001 	(obj:0)
y1(4,101)                            1095.70698300005 	(obj:0)
y1(4,103)                            1992.79638600001 	(obj:0)
y1(4,104)                            1095.70698300005 	(obj:0)
y1(4,106)                            1992.79638600001 	(obj:0)
y1(4,107)                            1095.70698300005 	(obj:0)
y1(4,109)                            1992.79638600001 	(obj:0)
y1(4,110)                            1095.70698300005 	(obj:0)
y1(4,112)                            1992.79638600001 	(obj:0)
y1(4,113)                            1095.70698300005 	(obj:0)
y1(4,115)                            1992.79638600001 	(obj:0)
y1(4,116)                            1095.70698300005 	(obj:0)
y1(4,118)                            1992.79638600001 	(obj:0)
y1(4,119)                            1095.70698300005 	(obj:0)
AVE(3)                                3399.3204933139 	(obj:0)
AVE(4)                               3353.21046544222 	(obj:0)
WG(3)                                 3399.3204933139 	(obj:10)
WG(4)                                3353.21046544222 	(obj:10)
BG(1)                                4319.60782647058 	(obj:10)
BG(2)                                4568.34066740683 	(obj:10)
BG(3)                                1096.59785668612 	(obj:10)
BG(4)                                1142.70788455778 	(obj:10)
WB(1)                                3134.60043707458 	(obj:0)
AVE(1)                               3134.60043707458 	(obj:0)
WB(2)                                3326.45170866643 	(obj:0)
AVE(2)                               3326.45170866643 	(obj:0)
y1(1,1)                              1820.01207294121 	(obj:0)
y1(1,2)                              922.922669941217 	(obj:0)
y1(2,4)                              2063.77025705871 	(obj:0)
y1(2,5)                              1166.68085405875 	(obj:0)
y1(2,6)                              70.9738710587108 	(obj:0)
y1(2,7)                              2063.77025705871 	(obj:0)
y1(2,8)                              1166.68085405875 	(obj:0)
y1(2,9)                              70.9738710586971 	(obj:0)
y1(2,10)                             2063.77025705871 	(obj:0)
y1(2,11)                             1166.68085405875 	(obj:0)
y1(2,12)                             70.9738710587108 	(obj:0)
y1(3,13)                             1992.79638600003 	(obj:0)
y1(3,14)                             1095.70698300007 	(obj:0)
y1(3,16)                             1992.79638600003 	(obj:0)
y1(3,17)                             1095.70698300007 	(obj:0)
y1(3,19)                             1992.79638600003 	(obj:0)
y1(3,20)                             1095.70698300007 	(obj:0)
y1(3,22)                             1992.79638600003 	(obj:0)
y1(3,23)                             1095.70698300007 	(obj:0)
y1(3,25)                             1992.79638600003 	(obj:0)
y1(3,26)                             1095.70698300007 	(obj:0)
y1(3,28)                             1992.79638600003 	(obj:0)
y1(3,29)                             1095.70698300007 	(obj:0)
y1(3,31)                             1992.79638600003 	(obj:0)
y1(3,32)                             1095.70698300007 	(obj:0)
y1(3,34)                             1992.79638600003 	(obj:0)
y1(3,35)                             1095.70698300007 	(obj:0)
y1(3,37)                             1992.79638600003 	(obj:0)
y1(3,38)                             1095.70698300007 	(obj:0)
y1(4,40)                             1992.79638600001 	(obj:0)
y1(4,41)                             1095.70698300005 	(obj:0)
y1(4,43)                             1992.79638600001 	(obj:0)
y1(4,44)                             1095.70698300005 	(obj:0)
y1(4,46)                             1992.79638600001 	(obj:0)
y1(4,47)                             1095.70698300005 	(obj:0)
y1(4,49)                             1992.79638600001 	(obj:0)
y1(4,50)                             1095.70698300005 	(obj:0)
y1(4,52)                             1992.79638600001 	(obj:0)
y1(4,53)                             1095.70698300005 	(obj:0)
y1(4,55)                             1992.79638600001 	(obj:0)
y1(4,56)                             1095.70698300005 	(obj:0)
y1(4,58)                             1992.79638600001 	(obj:0)
y1(4,59)                             1095.70698300005 	(obj:0)
y1(4,61)                             1992.79638600001 	(obj:0)
y1(4,62)                             1095.70698300005 	(obj:0)
y1(4,64)                             1992.79638600001 	(obj:0)
y1(4,65)                             1095.70698300005 	(obj:0)
y1(4,67)                             1992.79638600001 	(obj:0)
y1(4,68)                             1095.70698300005 	(obj:0)
y1(4,70)                             1992.79638600001 	(obj:0)
y1(4,71)                             1095.70698300005 	(obj:0)
y1(4,73)                             1992.79638600001 	(obj:0)
y1(4,74)                             1095.70698300005 	(obj:0)
y1(4,76)                             1992.79638600001 	(obj:0)
y1(4,77)                             1095.70698300005 	(obj:0)
y1(4,79)                             1992.79638600001 	(obj:0)
y1(4,80)                             1095.70698300005 	(obj:0)
y1(4,82)                             1992.79638600001 	(obj:0)
y1(4,83)                             1095.70698300005 	(obj:0)
y1(4,85)                             1992.79638600001 	(obj:0)
y1(4,86)                             1095.70698300005 	(obj:0)
y1(4,88)                             1992.79638600001 	(obj:0)
y1(4,89)                             1095.70698300005 	(obj:0)
y1(4,91)                             1992.79638600001 	(obj:0)
y1(4,92)                             1095.70698300005 	(obj:0)
y1(4,94)                             1992.79638600001 	(obj:0)
y1(4,95)                             1095.70698300005 	(obj:0)
y1(4,97)                             1992.79638600001 	(obj:0)
y1(4,98)                             1095.70698300005 	(obj:0)
